% File represents an instance of a Composite Structure problem to be solved by a CP framework
% Created on 2025-03-26 10:41:20.804
T = 58;
n = 16;
m = 24;
edges = [(2, 1),
(6, 5),
(10, 9),
(14, 13),
(3, 2),
(7, 6),
(11, 10),
(15, 14),
(4, 3),
(8, 7),
(12, 11),
(15, 16),
(5, 1),
(5, 9),
(13, 9),
(6, 2),
(6, 10),
(14, 10),
(7, 3),
(7, 11),
(15, 11),
(8, 4),
(8, 12),
(12, 16)];
counts = [|6, 18, 6, 10,
|6, 18, 6, 14,
|8, 18, 8, 16,
|8, 24, 8, 16,
|6, 20, 6, 10,
|6, 20, 6, 14,
|8, 20, 8, 16,
|8, 26, 8, 16,
|4, 18, 4, 10,
|4, 18, 4, 14,
|6, 20, 6, 14,
|8, 20, 8, 16,
|4, 20, 4, 12,
|4, 22, 4, 14,
|6, 22, 6, 14,
|6, 20, 6, 14|];
